Version identifier: 22.1.1.0 | 2022-11-28 | 9160aff4d
CPXPARAM_ClockType                               1
CPXPARAM_Read_DataCheck                          1
CPXPARAM_Threads                                 1
CPXPARAM_TimeLimit                               7200
CPXPARAM_MIP_Tolerances_AbsMIPGap                0
CPXPARAM_MIP_Tolerances_MIPGap                   0
CPXPARAM_MIP_Tolerances_Integrality              0
Tried aggregator 2 times.
Aggregator has done 29416 substitutions...
MIP Presolve eliminated 1447573 rows and 1112 columns.
MIP Presolve modified 326086 coefficients.
Aggregator did 29416 substitutions.
Reduced MIP has 2135456 rows, 73540 columns, and 8971322 nonzeros.
Reduced MIP has 73540 binaries, 0 generals, 0 SOSs, and 0 indicators.
Presolve time = 284.05 sec. (130074.89 ticks)
Probing time = 0.38 sec. (28.65 ticks)
Tried aggregator 1 time.
Presolve has eliminated 0 rows and 0 columns...
Detecting symmetries...
Reduced MIP has 2135456 rows, 73540 columns, and 8971322 nonzeros.
Reduced MIP has 73540 binaries, 0 generals, 0 SOSs, and 0 indicators.
Presolve time = 45.10 sec. (13102.00 ticks)
Probing time = 0.37 sec. (28.40 ticks)
Clique table members: 2175470.
MIP emphasis: balance optimality and feasibility.
MIP search method: dynamic search.
Parallel mode: none, using 1 thread.
